50
22423

368 10
224 477
63 694
656 62
846 464
79 972
405 774
903 966
531 849
707 257
736 580
254 786
491 184
377 712
686 855
288 364
271 7
427 703
285 789
528 563
471 105
772 196
299 900
518 151
655 52
112 469
792 741
80 689
866 267
415 606
983 326
284 760
975 694
29 476
551 2
44 822
480 146
80 619
874 45
517 318
267 780
794 484
962 852
988 504
734 129
322 551
977 2
649 799
20 50
31 26
